From LatticeModel.WriteTB. 2025/7/20 18:12:1
1.0
        2.8716975709999999         0.0000000000000000         0.0000000000000000
        1.4358487849999999         2.4869630489999999         0.0000000000000000
        1.4358487849999999         0.8289876830000000         2.3447312180000002
    Li     F
     1     1
Cartesian
     1.4358487852499999      0.8289876830000000      0.5861828045000000
     4.3075463557499996      2.4869630489999999      1.7585484135000002
